99, 355
158, 832
179, 823
98, 646
550, 796
61, 838
151, 646
122, 790
253, 949
200, 708
148, 892
482, 745
175, 966
285, 780
256, 817
395, 945
465, 988
486, 851
167, 561
387, 636
198, 821
488, 817
384, 697
440, 925
65, 649
336, 638
486, 928
256, 681
451, 611
123, 971
387, 544
91, 823
402, 852
147, 646
53, 789
327, 576
502, 984
180, 858
375, 858
288, 909
50, 581
454, 957
226, 777
265, 805
325, 655
186, 644
204, 514
99, 541
448, 578
326, 984
399, 595
247, 952
530, 656
434, 951
135, 561
117, 968
132, 889
167, 920
228, 993
240, 922
141, 711
543, 525
83, 717
526, 682
481, 891
499, 737
458, 782
145, 568
257, 781
481, 592
60, 726
292, 824
373, 608
195, 531
351, 678
309, 717
507, 629
241, 818
189, 956
152, 760
298, 991
453, 750
117, 796
91, 985
306, 886
417, 651
369, 844
205, 818
292, 637
181, 741
364, 593
80, 580
401, 880
272, 604
192, 673
108, 770
201, 929
162, 551
253, 660
229, 758